Solving original (integer) problem with strategy gdp.bigm...
--- Job model.gms Start 02/14/26 21:36:28 52.2.0 d8e408be LEX-LEG x86 64bit/Linux
--- Applying:
    /package/gams/52.2/gmsprmun.txt
--- GAMS Parameters defined
    Input /local/scratch/a/sgusev/repos/k_means/data/gams_gurobi_gdp.bigm/no_mode/2026-02-14_21-36-28/original/model.gms
    Output /local/scratch/a/sgusev/repos/k_means/data/gams_gurobi_gdp.bigm/no_mode/2026-02-14_21-36-28/original/output.lst
    ScrDir /local/scratch/a/sgusev/repos/k_means/data/gams_gurobi_gdp.bigm/no_mode/2026-02-14_21-36-28/original/225a/
    SysDir /package/gams/52.2/
    CurDir /local/scratch/a/sgusev/repos/k_means/data/gams_gurobi_gdp.bigm/no_mode/2026-02-14_21-36-28/original/
    LogOption 3
    AppendLog 1
Licensee: David Bernal / SECQUOIA Research Group         G251008+0003Ac-GEN
          Purdue University, Davidson School of Chemical EngineeringDCE4838
          225a/gamslice.dat
          5a82958a-fbca-4a23
          node:66820903 mem:995 cores:48 ipport:34107 v:2                  
          Evaluation license: Not for commercial or production use
          The time-limited license stops working on : Jun 30, 2027
System information: 48 physical cores and 995 Gb physical memory detected
GAMS 52.2.0   Copyright (C) 1987-2025 GAMS Development. All rights reserved
--- Starting compilation
--- model.gms(289) 2 Mb
--- $echo File /local/scratch/a/sgusev/repos/k_means/data/gams_gurobi_gdp.bigm/no_mode/2026-02-14_21-36-28/original/gurobi.opt
--- model.gms(500) 2 Mb
--- Starting execution: elapsed 0:00:00.006
--- model.gms(298) 3 Mb
--- Generating MINLP model GAMS_MODEL
--- model.gms(302) 5 Mb
---   64 rows  81 columns  403 non-zeroes
---   1,008 nl-code  240 nl-non-zeroes
---   48 discrete-columns
--- Range statistics (absolute non-zero finite values)
--- RHS       [min, max] : [ 1.000E+00, 1.569E+01] - Zero values observed as well
--- Bound     [min, max] : [ 1.000E+00, 1.200E+02] - Zero values observed as well
--- Matrix    [min, max] : [ 3.371E-02, 1.569E+01]
--- model.gms(302) 3 Mb
--- Executing GUROBI (Solvelink=5): elapsed 0:00:00.009
Reading parameter(s) from "/local/scratch/a/sgusev/repos/k_means/data/gams_gurobi_gdp.bigm/no_mode/2026-02-14_21-36-28/original/gurobi.opt"
>>  NonConvex 2
>>  Threads 1
>>  MIPGap 1e-06
>>  MIPGapAbs 1e-10
>>  FeasibilityTol 1e-06
>>  OptimalityTol 1e-06
>>  IntFeasTol 1e-05
Finished reading from "/local/scratch/a/sgusev/repos/k_means/data/gams_gurobi_gdp.bigm/no_mode/2026-02-14_21-36-28/original/gurobi.opt"

... GRB_LICENSE_FILE = /local/scratch/a/sgusev/gurobi.lic

    Gurobi           52.2.0 d8e408be Dec 8, 2025           LEG x86 64bit/Linux    

... GAMS/Gurobi Link license.
... GMO Q Extraction (ThreePass): 0.00s

    Gurobi Optimizer version 13.0.0 build v13.0.0rc1 (linux64 - "Oracle Linux Server 9.7")
    
    CPU model: AMD EPYC 7643 48-Core Processor, instruction set [SSE2|AVX|AVX2]
    Thread count: 48 physical cores, 96 logical processors, using up to 1 threads
    
    Non-default parameters:
    TimeLimit  300
    MIPGap  1e-06
    LogToConsole  0
    NonConvex  2
    Threads  1
    
    Optimize a model with 15 rows, 80 columns and 54 nonzeros (Min)
    Model fingerprint: 0xe8b7b4bd
    Model has 12 linear objective coefficients
    Model has 48 quadratic constraints
    Variable types: 32 continuous, 48 integer (0 binary)
    Coefficient statistics:
      Matrix range     [1e+00, 1e+00]
      QMatrix range    [1e+00, 1e+00]
      QLMatrix range   [3e-02, 2e+01]
      Objective range  [1e+00, 1e+00]
      Bounds range     [1e+00, 1e+02]
      RHS range        [1e+00, 1e+00]
      QRHS range       [9e+00, 1e+01]
    Presolve added 48 rows and 4 columns
    Presolve time: 0.00s
    Presolved: 63 rows, 84 columns, 438 nonzeros
    Presolved model has 4 quadratic constraint(s)
    Variable types: 36 continuous, 48 integer (48 binary)
    
    Root relaxation: objective 0.000000e+00, 18 iterations, 0.00 seconds (0.00 work units)
    
        Nodes    |    Current Node    |     Objective Bounds      |     Work
     Expl Unexpl |  Obj  Depth IntInf | Incumbent    BestBd   Gap | It/Node Time
    
    H    0     0                      12.5583419    0.00000   100%     -    0s
    *    0     0               0      12.5583419    0.00000   100%     -    0s
         0     0    0.00000    0   12   12.55834    0.00000   100%     -    0s
         0     0    0.00000    0   23   12.55834    0.00000   100%     -    0s
         0     0    0.00000    0   23   12.55834    0.00000   100%     -    0s
         0     0    0.00000    0   27   12.55834    0.00000   100%     -    0s
    H    0     0                      12.1026976    0.00000   100%     -    0s
    *    0     0               0      12.1026976    0.00000   100%     -    0s
         0     0    0.00000    0   16   12.10270    0.00000   100%     -    0s
         0     0    0.00000    0   27   12.10270    0.00000   100%     -    0s
    H    0     0                      12.0510017    0.00000   100%     -    0s
    *    0     0               0      12.0510017    0.00000   100%     -    0s
         0     0    0.00000    0   16   12.05100    0.00000   100%     -    0s
         0     0    0.00000    0   27   12.05100    0.00000   100%     -    0s
    H    0     0                       7.7825143    0.00000   100%     -    0s
    *    0     0               0       7.7825143    0.00000   100%     -    0s
         0     0    0.00000    0   14    7.78251    0.00000   100%     -    0s
         0     0    0.00000    0   19    7.78251    0.00000   100%     -    0s
         0     0    0.00000    0    -    7.78251    0.00000   100%     -    0s
         0     0    0.00000    0    6    7.78251    0.00000   100%     -    0s
         0     0    0.00000    0   12    7.78251    0.00000   100%     -    0s
         0     0    0.00000    0    6    7.78251    0.00000   100%     -    0s
         0     0    0.00000    0   12    7.78251    0.00000   100%     -    0s
         0     0    0.00000    0    2    7.78251    0.00000   100%     -    0s
         0     0    0.00000    0   14    7.78251    0.00000   100%     -    0s
         0     0    0.00000    0    2    7.78251    0.00000   100%     -    0s
         0     0    0.00000    0   10    7.78251    0.00000   100%     -    0s
         0     0    0.00000    0    -    7.78251    0.00000   100%     -    0s
         0     0    0.00000    0   14    7.78251    0.00000   100%     -    0s
         0     0    0.00000    0   23    7.78251    0.00000   100%     -    0s
         0     0    0.00000    0    -    7.78251    0.00000   100%     -    0s
         0     0    0.00000    0    8    7.78251    0.00000   100%     -    0s
         0     0    0.00000    0   19    7.78251    0.00000   100%     -    0s
         0     0    0.00000    0    4    7.78251    0.00000   100%     -    0s
         0     0    0.00000    0    8    7.78251    0.00000   100%     -    0s
         0     0    0.00000    0   20    7.78251    0.00000   100%     -    0s
         0     0    0.00000    0    2    7.78251    0.00000   100%     -    0s
         0     0    0.00000    0   14    7.78251    0.00000   100%     -    0s
         0     0    0.00000    0    4    7.78251    0.00000   100%     -    0s
         0     0    0.00000    0   14    7.78251    0.00000   100%     -    0s
         0     0    0.00000    0    2    7.78251    0.00000   100%     -    0s
         0     0    0.00000    0   10    7.78251    0.00000   100%     -    0s
         0     0    0.00000    0    4    7.78251    0.00000   100%     -    0s
         0     0    0.00000    0   18    7.78251    0.00000   100%     -    0s
         0     0    0.00000    0    4    7.78251    0.00000   100%     -    0s
         0     0    0.00000    0   16    7.78251    0.00000   100%     -    0s
         0     0    0.00000    0    2    7.78251    0.00000   100%     -    0s
         0     0    0.00000    0   12    7.78251    0.00000   100%     -    0s
         0     0    0.00000    0    8    7.78251    0.00000   100%     -    0s
         0     0    0.00000    0    8    7.78251    0.00000   100%     -    0s
         0     0    0.00000    0   12    7.78251    0.00000   100%     -    0s
         0     0    0.00000    0    2    7.78251    0.00000   100%     -    0s
         0     0    0.00000    0   16    7.78251    0.00000   100%     -    0s
         0     0    0.00000    0    6    7.78251    0.00000   100%     -    0s
         0     0    0.00000    0   16    7.78251    0.00000   100%     -    0s
         0     0    0.00000    0    -    7.78251    0.00000   100%     -    0s
         0     0    0.00000    0    8    7.78251    0.00000   100%     -    0s
         0     0    0.00000    0   16    7.78251    0.00000   100%     -    0s
         0     0    0.00000    0    4    7.78251    0.00000   100%     -    0s
         0     0    0.00000    0    8    7.78251    0.00000   100%     -    0s
         0     0    0.00000    0   12    7.78251    0.00000   100%     -    0s
         0     0    0.00000    0    4    7.78251    0.00000   100%     -    0s
         0     0    0.00000    0   14    7.78251    0.00000   100%     -    0s
         0     0    0.00000    0    4    7.78251    0.00000   100%     -    0s
         0     0    0.00000    0   16    7.78251    0.00000   100%     -    0s
         0     0    0.00000    0    4    7.78251    0.00000   100%     -    0s
         0     0    0.00000    0   14    7.78251    0.00000   100%     -    0s
         0     0    0.00000    0    -    7.78251    0.00000   100%     -    0s
         0     0    0.00000    0    8    7.78251    0.00000   100%     -    0s
         0     0    0.00000    0   16    7.78251    0.00000   100%     -    0s
         0     0    0.00000    0    4    7.78251    0.00000   100%     -    0s
         0     0    0.00000    0   14    7.78251    0.00000   100%     -    0s
         0     0    0.00000    0    8    7.78251    0.00000   100%     -    0s
         0     0    0.00000    0   16    7.78251    0.00000   100%     -    0s
         0     0    0.00000    0    6    7.78251    0.00000   100%     -    0s
         0     0    0.00000    0   14    7.78251    0.00000   100%     -    0s
         0     0    0.00000    0    2    7.78251    0.00000   100%     -    0s
         0     0    0.00000    0   17    7.78251    0.00000   100%     -    0s
         0     0    0.00000    0    8    7.78251    0.00000   100%     -    0s
         0     0    0.00000    0   14    7.78251    0.00000   100%     -    0s
         0     0    0.00000    0    2    7.78251    0.00000   100%     -    0s
         0     0    0.00000    0   16    7.78251    0.00000   100%     -    0s
         0     0    0.00000    0    2    7.78251    0.00000   100%     -    0s
         0     0    0.00000    0   12    7.78251    0.00000   100%     -    0s
         0     0    0.00000    0   12    7.78251    0.00000   100%     -    0s
         0     0    0.00000    0   16    7.78251    0.00000   100%     -    0s
         0     0    0.00000    0    4    7.78251    0.00000   100%     -    0s
         0     0    0.00000    0   12    7.78251    0.00000   100%     -    0s
         0     0    0.00000    0    6    7.78251    0.00000   100%     -    0s
         0     0    0.00000    0   14    7.78251    0.00000   100%     -    0s
         0     0    0.00000    0    6    7.78251    0.00000   100%     -    0s
         0     0    0.00000    0   10    7.78251    0.00000   100%     -    0s
         0     0    0.00000    0    8    7.78251    0.00000   100%     -    0s
         0     0    0.00000    0   14    7.78251    0.00000   100%     -    0s
         0     0    0.00000    0    2    7.78251    0.00000   100%     -    0s
         0     0    0.00000    0   12    7.78251    0.00000   100%     -    0s
         0     0    0.00000    0    8    7.78251    0.00000   100%     -    0s
         0     0    0.00000    0   14    7.78251    0.00000   100%     -    0s
         0     0    0.00000    0    6    7.78251    0.00000   100%     -    0s
         0     0    0.00000    0   14    7.78251    0.00000   100%     -    0s
         0     0    0.00000    0    6    7.78251    0.00000   100%     -    0s
         0     0    0.00000    0   16    7.78251    0.00000   100%     -    0s
         0     0    0.00000    0    8    7.78251    0.00000   100%     -    0s
         0     0    0.00000    0   10    7.78251    0.00000   100%     -    0s
         0     0    0.00000    0    6    7.78251    0.00000   100%     -    0s
         0     0    0.00000    0   16    7.78251    0.00000   100%     -    0s
         0     0    0.00000    0    4    7.78251    0.00000   100%     -    0s
         0     0    0.00000    0   10    7.78251    0.00000   100%     -    0s
         0     0    0.00000    0   10    7.78251    0.00000   100%     -    0s
         0     0    0.00000    0   16    7.78251    0.00000   100%     -    0s
         0     0    0.00000    0    6    7.78251    0.00000   100%     -    0s
         0     0    0.00000    0   14    7.78251    0.00000   100%     -    0s
         0     0    0.00000    0    6    7.78251    0.00000   100%     -    0s
         0     0    0.00000    0   16    7.78251    0.00000   100%     -    0s
         0     0    0.00000    0    2    7.78251    0.00000   100%     -    0s
         0     0    0.00000    0   18    7.78251    0.00000   100%     -    0s
         0     0    0.00000    0    6    7.78251    0.00000   100%     -    0s
         0     0    0.00000    0    8    7.78251    0.00000   100%     -    0s
         0     0    0.00000    0   16    7.78251    0.00000   100%     -    0s
         0     0    0.00000    0    4    7.78251    0.00000   100%     -    0s
         0     0    0.00000    0   18    7.78251    0.00000   100%     -    0s
         0     0    0.00000    0    6    7.78251    0.00000   100%     -    0s
         0     0    0.00000    0   16    7.78251    0.00000   100%     -    0s
         0     0    0.00000    0   10    7.78251    0.00000   100%     -    0s
         0     0    0.00000    0   18    7.78251    0.00000   100%     -    0s
         0     0    0.00000    0    4    7.78251    0.00000   100%     -    0s
         0     0    0.00000    0   19    7.78251    0.00000   100%     -    0s
         0     0    0.00000    0    2    7.78251    0.00000   100%     -    0s
         0     0    0.00000    0   14    7.78251    0.00000   100%     -    0s
         0     0    0.00000    0    8    7.78251    0.00000   100%     -    0s
         0     0    0.00000    0    8    7.78251    0.00000   100%     -    0s
         0     0    0.00000    0    8    7.78251    0.00000   100%     -    0s
         0     0    0.00000    0   14    7.78251    0.00000   100%     -    0s
         0     0    0.00000    0    4    7.78251    0.00000   100%     -    0s
         0     0    0.00000    0   14    7.78251    0.00000   100%     -    0s
         0     0    0.00000    0    6    7.78251    0.00000   100%     -    0s
         0     0    0.00000    0   10    7.78251    0.00000   100%     -    0s
         0     0    0.00000    0    8    7.78251    0.00000   100%     -    0s
         0     0    0.00000    0   16    7.78251    0.00000   100%     -    0s
         0     0    0.00000    0    4    7.78251    0.00000   100%     -    0s
         0     0    0.00000    0   16    7.78251    0.00000   100%     -    0s
         0     0    0.00000    0    6    7.78251    0.00000   100%     -    0s
         0     0    0.00000    0   16    7.78251    0.00000   100%     -    0s
         0     0    0.00000    0    4    7.78251    0.00000   100%     -    0s
         0     0    0.00000    0   14    7.78251    0.00000   100%     -    0s
         0     0    0.00000    0    6    7.78251    0.00000   100%     -    0s
         0     0    0.00000    0   16    7.78251    0.00000   100%     -    0s
         0     0    0.00000    0    3    7.78251    0.00000   100%     -    0s
         0     0    0.00000    0   16    7.78251    0.00000   100%     -    0s
         0     0    0.00000    0    4    7.78251    0.00000   100%     -    0s
         0     0    0.00000    0   12    7.78251    0.00000   100%     -    0s
         0     0    0.00000    0   12    7.78251    0.00000   100%     -    0s
         0     0    0.00000    0   18    7.78251    0.00000   100%     -    0s
         0     0    0.00000    0    2    7.78251    0.00000   100%     -    0s
         0     0    0.00000    0   14    7.78251    0.00000   100%     -    0s
         0     0    0.00000    0    4    7.78251    0.00000   100%     -    0s
         0     0    0.00000    0   12    7.78251    0.00000   100%     -    0s
         0     0    0.00000    0    6    7.78251    0.00000   100%     -    0s
         0     0    0.00000    0   14    7.78251    0.00000   100%     -    0s
         0     0    0.00000    0    9    7.78251    0.00000   100%     -    0s
         0     0    0.00000    0   15    7.78251    0.00000   100%     -    0s
         0     0    0.00000    0    4    7.78251    0.00000   100%     -    0s
         0     0    0.00000    0   14    7.78251    0.00000   100%     -    0s
         0     0    0.00000    0   10    7.78251    0.00000   100%     -    0s
         0     0    0.00000    0   12    7.78251    0.00000   100%     -    0s
         0     0    0.00000    0   12    7.78251    0.00000   100%     -    0s
         0     0    0.00000    0   18    7.78251    0.00000   100%     -    0s
         0     0    0.00000    0   10    7.78251    0.00000   100%     -    0s
         0     0    0.00000    0   12    7.78251    0.00000   100%     -    0s
         0     0    0.00000    0   12    7.78251    0.00000   100%     -    0s
         0     0    0.00000    0   18    7.78251    0.00000   100%     -    0s
         0     0    0.00000    0    2    7.78251    0.00000   100%     -    0s
         0     0    0.00000    0   12    7.78251    0.00000   100%     -    0s
         0     0    0.00000    0   12    7.78251    0.00000   100%     -    0s
         0     0    0.00000    0   18    7.78251    0.00000   100%     -    0s
         0     0    0.00000    0   10    7.78251    0.00000   100%     -    0s
         0     0    0.00000    0   14    7.78251    0.00000   100%     -    0s
         0     0    0.00000    0    6    7.78251    0.00000   100%     -    0s
         0     0    0.00000    0   16    7.78251    0.00000   100%     -    0s
         0     0    0.00000    0    4    7.78251    0.00000   100%     -    0s
         0     0    0.00000    0   12    7.78251    0.00000   100%     -    0s
         0     0    0.00000    0    2    7.78251    0.00000   100%     -    0s
         0     0    0.00000    0   14    7.78251    0.00000   100%     -    0s
         0     0    0.00000    0   10    7.78251    0.00000   100%     -    0s
         0     0    0.00000    0   18    7.78251    0.00000   100%     -    0s
         0     0    0.00000    0    6    7.78251    0.00000   100%     -    0s
         0     0    0.00000    0   18    7.78251    0.00000   100%     -    0s
         0     0    0.00000    0    4    7.78251    0.00000   100%     -    0s
         0     0    0.00000    0   14    7.78251    0.00000   100%     -    0s
         0     0    0.00000    0    2    7.78251    0.00000   100%     -    0s
         0     0    0.00000    0   16    7.78251    0.00000   100%     -    0s
         0     0    0.00000    0    8    7.78251    0.00000   100%     -    0s
         0     0    0.00000    0   12    7.78251    0.00000   100%     -    0s
         0     0    0.00000    0    8    7.78251    0.00000   100%     -    0s
         0     0    0.00000    0   14    7.78251    0.00000   100%     -    0s
         0     0    0.00000    0    4    7.78251    0.00000   100%     -    0s
         0     0    0.00000    0   12    7.78251    0.00000   100%     -    0s
         0     0    0.00000    0    8    7.78251    0.00000   100%     -    0s
         0     0    0.00000    0   16    7.78251    0.00000   100%     -    0s
         0     0    0.00000    0    4    7.78251    0.00000   100%     -    0s
         0     0    0.00000    0   14    7.78251    0.00000   100%     -    0s
         0     0    0.00000    0    6    7.78251    0.00000   100%     -    0s
         0     0    0.00000    0   12    7.78251    0.00000   100%     -    0s
         0     0    0.00000    0   10    7.78251    0.00000   100%     -    0s
         0     0    0.00000    0   12    7.78251    0.00000   100%     -    0s
         0     0    0.00000    0   12    7.78251    0.00000   100%     -    0s
         0     0    0.00000    0   18    7.78251    0.00000   100%     -    0s
         0     0    0.00000    0    4    7.78251    0.00000   100%     -    0s
         0     2    0.00000    0    2    7.78251    0.00000   100%     -    0s
    H   52    48                       7.7825142    0.00000   100%   9.3    0s
    H  156   132                       7.7825142    0.00000   100%   8.6    0s
    H  257   195                       7.7825142    0.00000   100%   8.9    0s
    H  310   223                       7.7825142    0.00000   100%   8.4    0s
    H  318   217                       7.7825142    0.00000   100%   8.1    0s
     17074  7456    6.89936   29   10    7.78251    1.61089  79.3%   8.5    5s
     39911 14376     cutoff   40         7.78251    2.66387  65.8%   8.2   10s
    H48592 16312                       7.7007519    2.95171  61.7%   8.1   12s
    H48645 16323                       7.7007519    2.96198  61.5%   8.1   12s
    H48802 16357                       7.7007519    2.96866  61.4%   8.1   12s
    H48854 16367                       7.7007519    2.96897  61.4%   8.1   12s
    H48906 16368                       7.7007519    2.96906  61.4%   8.1   12s
     57675 18124    7.65740   31    8    7.70075    3.22257  58.2%   8.2   15s
     77333 21394     cutoff   36         7.70075    3.66954  52.3%   8.2   20s
     95776 23682     cutoff   38         7.70075    4.03435  47.6%   8.2   25s
     113525 25617    5.34007   31   11    7.70075    4.30416  44.1%   8.3   30s
     130906 26866    6.49746   29    8    7.70075    4.54590  41.0%   8.3   35s
     146041 27510    7.60065   32    6    7.70075    4.75442  38.3%   8.3   40s
     162284 27836     cutoff   36         7.70075    4.96625  35.5%   8.3   45s
     177911 27534    6.96255   33   10    7.70075    5.15436  33.1%   8.3   50s
     193436 27101     cutoff   39         7.70075    5.33044  30.8%   8.4   55s
     208940 26110     cutoff   38         7.70075    5.50789  28.5%   8.4   60s
     221813 25052     cutoff   32         7.70075    5.65015  26.6%   8.4   65s
     236841 23250    6.30263   35    8    7.70075    5.85253  24.0%   8.4   70s
     251264 20820    6.74801   38    6    7.70075    6.04996  21.4%   8.4   75s
     265374 17801     cutoff   40         7.70075    6.27072  18.6%   8.4   80s
     279182 13954     cutoff   35         7.70075    6.53053  15.2%   8.4   85s
     292641  8773     cutoff   36         7.70075    6.88986  10.5%   8.4   90s
     306272  1087     cutoff   35         7.70075    7.55002  1.96%   8.4   95s
    H307341   292                       7.7007518    7.65238  0.63%   8.4   96s
    H307341   292                       7.7007516    7.65238  0.63%   8.4   96s
    H307522   136                       7.7007514    7.67681  0.31%   8.4   96s
    H307641    23                       7.7007512    7.69678  0.05%   8.4   96s
    
    Cutting planes:
      Flow cover: 1
    
    Explored 307669 nodes (2599657 simplex iterations) in 96.46 seconds (127.61 work units)
    Thread count was 1 (of 96 available processors)
    
    Solution count 6: 7.70075 7.70075 7.78251 ... 12.5583
    No other solutions better than 7.70075
    
    Optimal solution found (tolerance 1.00e-06)
    Best objective 7.700751087072e+00, best bound 7.700751087072e+00, gap 0.0000%
    
    User-callback calls 307787, time in user-callback 0.02 sec

... Solving fixed model...

    Gurobi Optimizer version 13.0.0 build v13.0.0rc1 (linux64 - "Oracle Linux Server 9.7")
    
    CPU model: AMD EPYC 7643 48-Core Processor, instruction set [SSE2|AVX|AVX2]
    Thread count: 48 physical cores, 96 logical processors, using up to 1 threads
    
    Non-default parameters:
    TimeLimit  300
    MIPGap  1e-06
    LogToConsole  0
    NonConvex  2
    Threads  1
    
    Optimize a model with 15 rows, 80 columns and 54 nonzeros (Min)
    Model fingerprint: 0x4c0739cc
    Model has 12 linear objective coefficients
    Model has 48 quadratic constraints
    Coefficient statistics:
      Matrix range     [1e+00, 1e+00]
      QMatrix range    [1e+00, 1e+00]
      QLMatrix range   [3e-02, 2e+01]
      Objective range  [1e+00, 1e+00]
      Bounds range     [1e+00, 1e+02]
      RHS range        [1e+00, 1e+00]
      QRHS range       [9e+00, 1e+01]
    Presolve removed 12 rows and 48 columns
    Presolve time: 0.00s
    Presolved: 84 rows, 96 columns, 211 nonzeros
    Presolved model has 12 second-order cone constraints
    Ordering time: 0.00s
    
    Barrier statistics:
     AA' NZ     : 8.310e+02
     Factor NZ  : 1.043e+03
     Factor Ops : 1.716e+04 (less than 1 second per iteration)
     Threads    : 1
    
                      Objective                Residual
    Iter       Primal          Dual         Primal    Dual     Compl     Time
       0   8.19762006e+02 -5.85169322e+02  1.44e+01 4.34e+00  1.86e+01     0s
       1   8.14101197e+01 -1.52996751e+02  1.59e-05 4.78e-06  1.59e+00     0s
       2   1.17735483e+01 -2.63123220e+01  3.15e-08 8.41e-07  2.59e-01     0s
       3   9.11992843e+00  1.15909351e+00  4.01e-11 8.01e-08  5.42e-02     0s
       4   7.90843297e+00  7.26110500e+00  7.11e-15 4.54e-09  4.40e-03     0s
       5   7.70399527e+00  7.69295325e+00  4.24e-14 5.44e-11  7.51e-05     0s
       6   7.70087561e+00  7.70053319e+00  1.62e-12 1.45e-12  2.33e-06     0s
       7   7.70075763e+00  7.70074280e+00  8.05e-11 3.14e-13  1.01e-07     0s
       8   7.70075108e+00  7.70075099e+00  5.46e-09 1.74e-11  6.44e-10     0s
    
    Barrier solved model in 8 iterations and 0.00 seconds (0.00 work units)
    Optimal objective 7.70075108e+00
    
    
    User-callback calls 0, time in user-callback 0.00 sec
    Warning: to get QCP duals, please set parameter QCPDual to 1

--- Reading solution for model GAMS_MODEL
***
*** Solver did not provide marginals for model GAMS_MODEL
***
--- Executing after solve: elapsed 0:01:36.499
--- model.gms(305) 3 Mb
--- model.gms(500) 5 Mb
--- Putfile results /local/scratch/a/sgusev/repos/k_means/data/gams_gurobi_gdp.bigm/no_mode/2026-02-14_21-36-28/original/results.dat
--- Putfile statresults /local/scratch/a/sgusev/repos/k_means/data/gams_gurobi_gdp.bigm/no_mode/2026-02-14_21-36-28/original/resultsstat.dat
*** Status: Normal completion
--- Job model.gms Stop 02/14/26 21:38:05 elapsed 0:01:36.500
Original problem solved. Time taken: 97.04898619651794 seconds
Original objective value: 7.700751081508314
